(set-logic ALL)
(declare-const x String)
(declare-const y String)
(assert (str.in_re x (re.+ (re.union (str.to_re "AABB") (re.union (str.to_re "aaee") (str.to_re "$$UUww"))))))
(assert (= 20 (str.len x)))
(check-sat)
